files/upTests/_matrix_of_tuples/withMatrixMuti/0001.eprime.solution
language ESSENCE' 1.0
$ minion Nodes: 1
$ minion TotalTime: 0.000817
$ Savile Row TotalTime: 0.295
letting pain_tuple4_tuple2 be [3]
letting pain_tuple1 be [2]
letting pain_tuple2 be [[4, 8, 9]]
letting pain_tuple4_tuple1 be [7]
letting pain_tuple3_tuple1 be [5]
